24 6404180
 825594 382745
1677009	799601
1676628	909247
1523970	729069
 943972	467902
  97426	 44328
  69666	 34610
1296457	698150
1679693	823460
1902996	903959
1844992	853665
1049289	551830
1252836	610856
1319836	670702
 953277	488960
2067538	951111
 675367	323046
 853655	446298
1826027	931161
  65731	 31385
 901489	496951
 577243	264724
 466257	224916
 369261	169684

